unsat
(:binary-propagations  38
 :conflicts            1
 :final-checks         1
 :max-generation       1
 :max-memory           28.20
 :memory               22.16
 :mk-bool-var          2576
 :mk-clause            782
 :mk-clause-binary     3969
 :num-allocs           85388020
 :num-checks           1
 :propagations         38
 :quant-instantiations 674
 :restarts             1
 :rlimit-count         642607
 :time                 0.12)
